\ENCODING=ISO-8859-1
\Problem name: ilog.cplex

Minimize
 obj1: 3 z(1,1)#48 + 3 z(1,1)#49 + 3 z(1,1)#50 + 3 z(1,1)#51 + 3 z(1,1)#52
       + 3 z(1,1)#53 + YY(1,1,1)#56 + YY(1,1,2)#58 + YY(2,1,1)#60
       + YY(3,1,1)#76 + YY(4,1,1)#92 + YY(2,1,2)#108 + YY(3,1,2)#122
       + YY(4,1,2)#136
Subject To
 b_0000#0:    x(1,1,1,0)#0 - x(1,1,1,1)#1 <= 0
 b_1000#1:    x(2,1,1,0)#2 - x(2,1,1,1)#3 <= 0
 b_2000#2:    x(3,1,1,0)#4 - x(3,1,1,1)#5 <= 0
 b_3000#3:    x(4,1,1,0)#6 - x(4,1,1,1)#7 <= 0
 b_0001#4:    x(1,1,1,1)#1 - x(1,1,1,2)#8 <= 0
 b_1001#5:    x(2,1,1,1)#3 - x(2,1,1,2)#9 <= 0
 b_2001#6:    x(3,1,1,1)#5 - x(3,1,1,2)#10 <= 0
 b_3001#7:    x(4,1,1,1)#7 - x(4,1,1,2)#11 <= 0
 b_0002#8:    x(1,1,1,2)#8 - x(1,1,1,3)#12 <= 0
 b_1002#9:    x(2,1,1,2)#9 - x(2,1,1,3)#13 <= 0
 b_2002#10:   x(3,1,1,2)#10 - x(3,1,1,3)#14 <= 0
 b_3002#11:   x(4,1,1,2)#11 - x(4,1,1,3)#15 <= 0
 b_0003#12:   x(1,1,1,3)#12 - x(1,1,1,4)#16 <= 0
 b_1003#13:   x(2,1,1,3)#13 - x(2,1,1,4)#17 <= 0
 b_2003#14:   x(3,1,1,3)#14 - x(3,1,1,4)#18 <= 0
 b_3003#15:   x(4,1,1,3)#15 - x(4,1,1,4)#19 <= 0
 b_0004#16:   x(1,1,1,4)#16 - x(1,1,1,5)#20 <= 0
 b_1004#17:   x(2,1,1,4)#17 - x(2,1,1,5)#21 <= 0
 b_2004#18:   x(3,1,1,4)#18 - x(3,1,1,5)#22 <= 0
 b_3004#19:   x(4,1,1,4)#19 - x(4,1,1,5)#23 <= 0
 b_0010#20:   x(1,1,2,0)#24 - x(1,1,2,1)#25 <= 0
 b_1010#21:   x(2,1,2,0)#26 - x(2,1,2,1)#27 <= 0
 b_2010#22:   x(3,1,2,0)#28 - x(3,1,2,1)#29 <= 0
 b_3010#23:   x(4,1,2,0)#30 - x(4,1,2,1)#31 <= 0
 b_0011#24:   x(1,1,2,1)#25 - x(1,1,2,2)#32 <= 0
 b_1011#25:   x(2,1,2,1)#27 - x(2,1,2,2)#33 <= 0
 b_2011#26:   x(3,1,2,1)#29 - x(3,1,2,2)#34 <= 0
 b_3011#27:   x(4,1,2,1)#31 - x(4,1,2,2)#35 <= 0
 b_0012#28:   x(1,1,2,2)#32 - x(1,1,2,3)#36 <= 0
 b_1012#29:   x(2,1,2,2)#33 - x(2,1,2,3)#37 <= 0
 b_2012#30:   x(3,1,2,2)#34 - x(3,1,2,3)#38 <= 0
 b_3012#31:   x(4,1,2,2)#35 - x(4,1,2,3)#39 <= 0
 b_0013#32:   x(1,1,2,3)#36 - x(1,1,2,4)#40 <= 0
 b_1013#33:   x(2,1,2,3)#37 - x(2,1,2,4)#41 <= 0
 b_2013#34:   x(3,1,2,3)#38 - x(3,1,2,4)#42 <= 0
 b_3013#35:   x(4,1,2,3)#39 - x(4,1,2,4)#43 <= 0
 b_0014#36:   x(1,1,2,4)#40 - x(1,1,2,5)#44 <= 0
 b_1014#37:   x(2,1,2,4)#41 - x(2,1,2,5)#45 <= 0
 b_2014#38:   x(3,1,2,4)#42 - x(3,1,2,5)#46 <= 0
 b_3014#39:   x(4,1,2,4)#43 - x(4,1,2,5)#47 <= 0
 c_0000#40:   - x(1,1,1,0)#0 + x(2,1,1,1)#3 <= 0
 c_1000#41:   - x(2,1,1,0)#2 + x(3,1,1,1)#5 <= 0
 c_2000#42:   - x(3,1,1,0)#4 + x(4,1,1,1)#7 <= 0
 c_0001#43:   - x(1,1,1,1)#1 + x(2,1,1,2)#9 <= 0
 c_1001#44:   - x(2,1,1,1)#3 + x(3,1,1,2)#10 <= 0
 c_2001#45:   - x(3,1,1,1)#5 + x(4,1,1,2)#11 <= 0
 c_0002#46:   - x(1,1,1,2)#8 + x(2,1,1,3)#13 <= 0
 c_1002#47:   - x(2,1,1,2)#9 + x(3,1,1,3)#14 <= 0
 c_2002#48:   - x(3,1,1,2)#10 + x(4,1,1,3)#15 <= 0
 c_0003#49:   - x(1,1,1,3)#12 + x(2,1,1,4)#17 <= 0
 c_1003#50:   - x(2,1,1,3)#13 + x(3,1,1,4)#18 <= 0
 c_2003#51:   - x(3,1,1,3)#14 + x(4,1,1,4)#19 <= 0
 c_0004#52:   - x(1,1,1,4)#16 + x(2,1,1,5)#21 <= 0
 c_1004#53:   - x(2,1,1,4)#17 + x(3,1,1,5)#22 <= 0
 c_2004#54:   - x(3,1,1,4)#18 + x(4,1,1,5)#23 <= 0
 c_0010#55:   - x(1,1,2,0)#24 + x(2,1,2,1)#27 <= 0
 c_1010#56:   - x(2,1,2,0)#26 + x(3,1,2,1)#29 <= 0
 c_2010#57:   - x(3,1,2,0)#28 + x(4,1,2,1)#31 <= 0
 c_0011#58:   - x(1,1,2,1)#25 + x(2,1,2,2)#33 <= 0
 c_1011#59:   - x(2,1,2,1)#27 + x(3,1,2,2)#34 <= 0
 c_2011#60:   - x(3,1,2,1)#29 + x(4,1,2,2)#35 <= 0
 c_0012#61:   - x(1,1,2,2)#32 + x(2,1,2,3)#37 <= 0
 c_1012#62:   - x(2,1,2,2)#33 + x(3,1,2,3)#38 <= 0
 c_2012#63:   - x(3,1,2,2)#34 + x(4,1,2,3)#39 <= 0
 c_0013#64:   - x(1,1,2,3)#36 + x(2,1,2,4)#41 <= 0
 c_1013#65:   - x(2,1,2,3)#37 + x(3,1,2,4)#42 <= 0
 c_2013#66:   - x(3,1,2,3)#38 + x(4,1,2,4)#43 <= 0
 c_0014#67:   - x(1,1,2,4)#40 + x(2,1,2,5)#45 <= 0
 c_1014#68:   - x(2,1,2,4)#41 + x(3,1,2,5)#46 <= 0
 c_2014#69:   - x(3,1,2,4)#42 + x(4,1,2,5)#47 <= 0
 d_01#70:     - x(1,1,1,0)#0 + x(1,1,1,1)#1 - x(2,1,1,0)#2 + x(2,1,1,1)#3
              - x(3,1,1,0)#4 + x(3,1,1,1)#5 - x(4,1,1,0)#6 + x(4,1,1,1)#7
              - z(1,1)#48 <= 0
 d_02#71:     - x(1,1,1,1)#1 - x(2,1,1,1)#3 - x(3,1,1,1)#5 - x(4,1,1,1)#7
              + x(1,1,1,2)#8 + x(2,1,1,2)#9 + x(3,1,1,2)#10 + x(4,1,1,2)#11
              - z(1,1)#49 <= 0
 d_03#72:     - x(1,1,1,2)#8 - x(2,1,1,2)#9 - x(3,1,1,2)#10 - x(4,1,1,2)#11
              + x(1,1,1,3)#12 + x(2,1,1,3)#13 + x(3,1,1,3)#14 + x(4,1,1,3)#15
              - z(1,1)#50 <= 0
 d_04#73:     - x(1,1,1,3)#12 - x(2,1,1,3)#13 - x(3,1,1,3)#14 - x(4,1,1,3)#15
              + x(1,1,1,4)#16 + x(2,1,1,4)#17 + x(3,1,1,4)#18 + x(4,1,1,4)#19
              - z(1,1)#51 <= 0
 d_05#74:     - x(1,1,1,4)#16 - x(2,1,1,4)#17 - x(3,1,1,4)#18 - x(4,1,1,4)#19
              + x(1,1,1,5)#20 + x(2,1,1,5)#21 + x(3,1,1,5)#22 + x(4,1,1,5)#23
              - z(1,1)#52 <= 0
 d_01#75:     - x(1,1,2,0)#24 + x(1,1,2,1)#25 - x(2,1,2,0)#26 + x(2,1,2,1)#27
              - x(3,1,2,0)#28 + x(3,1,2,1)#29 - x(4,1,2,0)#30 + x(4,1,2,1)#31
              - z(1,1)#48 <= 0
 d_02#76:     - x(1,1,2,1)#25 - x(2,1,2,1)#27 - x(3,1,2,1)#29 - x(4,1,2,1)#31
              + x(1,1,2,2)#32 + x(2,1,2,2)#33 + x(3,1,2,2)#34 + x(4,1,2,2)#35
              - z(1,1)#49 <= 0
 d_03#77:     - x(1,1,2,2)#32 - x(2,1,2,2)#33 - x(3,1,2,2)#34 - x(4,1,2,2)#35
              + x(1,1,2,3)#36 + x(2,1,2,3)#37 + x(3,1,2,3)#38 + x(4,1,2,3)#39
              - z(1,1)#50 <= 0
 d_04#78:     - x(1,1,2,3)#36 - x(2,1,2,3)#37 - x(3,1,2,3)#38 - x(4,1,2,3)#39
              + x(1,1,2,4)#40 + x(2,1,2,4)#41 + x(3,1,2,4)#42 + x(4,1,2,4)#43
              - z(1,1)#51 <= 0
 d_05#79:     - x(1,1,2,4)#40 - x(2,1,2,4)#41 - x(3,1,2,4)#42 - x(4,1,2,4)#43
              + x(1,1,2,5)#44 + x(2,1,2,5)#45 + x(3,1,2,5)#46 + x(4,1,2,5)#47
              - z(1,1)#52 <= 0
 a_e_0000#80: x(1,1,1,0)#0 - z(1,1)#53 <= 0
 a_e_0010#81: x(1,1,2,0)#24 - z(1,1)#53 <= 0
 f_0000#82:   x(1,1,1,0)#0 - x(2,1,1,3)#13 <= 0
 f_0001#83:   x(1,1,1,1)#1 - x(2,1,1,4)#17 <= 0
 f_0002#84:   x(1,1,1,2)#8 - x(2,1,1,5)#21 <= 0
 f_1000#85:   x(2,1,1,0)#2 - x(3,1,1,3)#14 <= 0
 f_1001#86:   x(2,1,1,1)#3 - x(3,1,1,4)#18 <= 0
 f_1002#87:   x(2,1,1,2)#9 - x(3,1,1,5)#22 <= 0
 f_2000#88:   x(3,1,1,0)#4 - x(4,1,1,3)#15 <= 0
 f_2001#89:   x(3,1,1,1)#5 - x(4,1,1,4)#19 <= 0
 f_2002#90:   x(3,1,1,2)#10 - x(4,1,1,5)#23 <= 0
 f_0010#91:   x(1,1,2,0)#24 - x(2,1,2,1)#27 <= 0
 f_0011#92:   x(1,1,2,1)#25 - x(2,1,2,2)#33 <= 0
 f_0012#93:   x(1,1,2,2)#32 - x(2,1,2,3)#37 <= 0
 f_0013#94:   x(1,1,2,3)#36 - x(2,1,2,4)#41 <= 0
 f_0014#95:   x(1,1,2,4)#40 - x(2,1,2,5)#45 <= 0
 f_1010#96:   x(2,1,2,0)#26 - x(3,1,2,1)#29 <= 0
 f_1011#97:   x(2,1,2,1)#27 - x(3,1,2,2)#34 <= 0
 f_1012#98:   x(2,1,2,2)#33 - x(3,1,2,3)#38 <= 0
 f_1013#99:   x(2,1,2,3)#37 - x(3,1,2,4)#42 <= 0
 f_1014#100:  x(2,1,2,4)#41 - x(3,1,2,5)#46 <= 0
 f_2010#101:  x(3,1,2,0)#28 - x(4,1,2,3)#39 <= 0
 f_2011#102:  x(3,1,2,1)#29 - x(4,1,2,4)#43 <= 0
 f_2012#103:  x(3,1,2,2)#34 - x(4,1,2,5)#47 <= 0
 g_000#104:   x(1,1,1,2)#8  = 1
 g_001#105:   x(1,1,2,1)#25  = 1
 h_1000#106:  x(2,1,1,0)#2  = 0
 h_2000#107:  x(3,1,1,0)#4  = 0
 h_3000#108:  x(4,1,1,0)#6  = 0
 h_1010#109:  x(2,1,2,0)#26  = 0
 h_2010#110:  x(3,1,2,0)#28  = 0
 h_3010#111:  x(4,1,2,0)#30  = 0
 i_00#112:    - x(1,1,1,0)#0 + x(1)#54  = 0
 i_01#113:    - x(1,1,2,0)#24 + x(2)#55  = 0
 j_0#114:     x(1)#54 >= 0
 j_1#115:     x(2)#55 >= 0
 k_000#116:   YY(1,1,1)#56 + w(1,1,1,2)#57  = 1
 k_001#117:   YY(1,1,2)#58 + w(1,1,2,1)#59  = 1
 l_100#118:   YY(2,1,1)#60 - 0.5 u(2,1,1,3)#61 - 0.5 v(2,1,1,3)#62
              - 0.5 u(2,1,1,4)#63 - 0.5 v(2,1,1,4)#64 - 0.5 u(2,1,1,5)#65
              - 0.5 v(2,1,1,5)#66 - 0.5 u(2,1,1,6)#67 - 0.5 v(2,1,1,6)#68
              - 0.5 u(2,1,1,7)#69 - 0.5 v(2,1,1,7)#70 - 0.5 u(2,1,1,8)#71
              - 0.5 v(2,1,1,8)#72 - 0.5 w(2,1,1,2)#73 - 0.5 w(2,1,1,1)#74
              - 0.5 w(2,1,1,0)#75  = 0
 l_200#119:   YY(3,1,1)#76 - 0.5 u(3,1,1,3)#77 - 0.5 v(3,1,1,3)#78
              - 0.5 u(3,1,1,4)#79 - 0.5 v(3,1,1,4)#80 - 0.5 u(3,1,1,5)#81
              - 0.5 v(3,1,1,5)#82 - 0.5 u(3,1,1,6)#83 - 0.5 v(3,1,1,6)#84
              - 0.5 u(3,1,1,7)#85 - 0.5 v(3,1,1,7)#86 - 0.5 u(3,1,1,8)#87
              - 0.5 v(3,1,1,8)#88 - 0.5 w(3,1,1,2)#89 - 0.5 w(3,1,1,1)#90
              - 0.5 w(3,1,1,0)#91  = 0
 l_300#120:   YY(4,1,1)#92 - 0.5 u(4,1,1,3)#93 - 0.5 v(4,1,1,3)#94
              - 0.5 u(4,1,1,4)#95 - 0.5 v(4,1,1,4)#96 - 0.5 u(4,1,1,5)#97
              - 0.5 v(4,1,1,5)#98 - 0.5 u(4,1,1,6)#99 - 0.5 v(4,1,1,6)#100
              - 0.5 u(4,1,1,7)#101 - 0.5 v(4,1,1,7)#102 - 0.5 u(4,1,1,8)#103
              - 0.5 v(4,1,1,8)#104 - 0.5 w(4,1,1,2)#105 - 0.5 w(4,1,1,1)#106
              - 0.5 w(4,1,1,0)#107  = 0
 l_101#121:   YY(2,1,2)#108 - 0.5 u(2,1,2,1)#109 - 0.5 v(2,1,2,1)#110
              - 0.5 u(2,1,2,2)#111 - 0.5 v(2,1,2,2)#112 - 0.5 u(2,1,2,3)#113
              - 0.5 v(2,1,2,3)#114 - 0.5 u(2,1,2,4)#115 - 0.5 v(2,1,2,4)#116
              - 0.5 u(2,1,2,5)#117 - 0.5 v(2,1,2,5)#118 - 0.5 u(2,1,2,6)#119
              - 0.5 v(2,1,2,6)#120 - 0.5 w(2,1,2,0)#121  = 0
 l_201#122:   YY(3,1,2)#122 - 0.5 u(3,1,2,1)#123 - 0.5 v(3,1,2,1)#124
              - 0.5 u(3,1,2,2)#125 - 0.5 v(3,1,2,2)#126 - 0.5 u(3,1,2,3)#127
              - 0.5 v(3,1,2,3)#128 - 0.5 u(3,1,2,4)#129 - 0.5 v(3,1,2,4)#130
              - 0.5 u(3,1,2,5)#131 - 0.5 v(3,1,2,5)#132 - 0.5 u(3,1,2,6)#133
              - 0.5 v(3,1,2,6)#134 - 0.5 w(3,1,2,0)#135  = 0
 l_301#123:   YY(4,1,2)#136 - 0.5 u(4,1,2,3)#137 - 0.5 v(4,1,2,3)#138
              - 0.5 u(4,1,2,4)#139 - 0.5 v(4,1,2,4)#140 - 0.5 u(4,1,2,5)#141
              - 0.5 v(4,1,2,5)#142 - 0.5 u(4,1,2,6)#143 - 0.5 v(4,1,2,6)#144
              - 0.5 u(4,1,2,7)#145 - 0.5 v(4,1,2,7)#146 - 0.5 u(4,1,2,8)#147
              - 0.5 v(4,1,2,8)#148 - 0.5 w(4,1,2,2)#149 - 0.5 w(4,1,2,1)#150
              - 0.5 w(4,1,2,0)#151  = 0
 m_1003#124:  y(2,1,1,3)#152 - w(2,1,1,3)#153 + w(1,1,1,0)#154  = 0
 m_1008#125:  y(2,1,1,8)#155 - w(2,1,1,8)#156 + w(1,1,1,5)#157  = 0
 m_2003#126:  w(2,1,1,0)#75 + y(3,1,1,3)#158 - w(3,1,1,3)#159  = 0
 m_2008#127:  y(3,1,1,8)#160 - w(3,1,1,8)#161 + w(2,1,1,5)#162  = 0
 m_3003#128:  w(3,1,1,0)#91 + y(4,1,1,3)#163 - w(4,1,1,3)#164  = 0
 m_3008#129:  y(4,1,1,8)#165 - w(4,1,1,8)#166 + w(3,1,1,5)#167  = 0
 m_1011#130:  y(2,1,2,1)#168 - w(2,1,2,1)#169 + w(1,1,2,0)#170  = 0
 m_1018#131:  y(2,1,2,8)#171 - w(2,1,2,8)#172 + w(1,1,2,7)#173  = 0
 m_2011#132:  w(2,1,2,0)#121 + y(3,1,2,1)#174 - w(3,1,2,1)#175  = 0
 m_2018#133:  y(3,1,2,8)#176 - w(3,1,2,8)#177 + w(2,1,2,7)#178  = 0
 m_3013#134:  w(3,1,2,0)#135 + y(4,1,2,3)#179 - w(4,1,2,3)#180  = 0
 m_3018#135:  y(4,1,2,8)#181 - w(4,1,2,8)#182 + w(3,1,2,5)#183  = 0
 n_0001#136:  x(1,1,1,0)#0 - x(1,1,1,1)#1 + w(1,1,1,1)#184  = 0
 n_1001#137:  x(2,1,1,0)#2 - x(2,1,1,1)#3 + w(2,1,1,1)#74  = 0
 n_2001#138:  x(3,1,1,0)#4 - x(3,1,1,1)#5 + w(3,1,1,1)#90  = 0
 n_3001#139:  x(4,1,1,0)#6 - x(4,1,1,1)#7 + w(4,1,1,1)#106  = 0
 n_0002#140:  x(1,1,1,1)#1 - x(1,1,1,2)#8 + w(1,1,1,2)#57  = 0
 n_1002#141:  x(2,1,1,1)#3 - x(2,1,1,2)#9 + w(2,1,1,2)#73  = 0
 n_2002#142:  x(3,1,1,1)#5 - x(3,1,1,2)#10 + w(3,1,1,2)#89  = 0
 n_3002#143:  x(4,1,1,1)#7 - x(4,1,1,2)#11 + w(4,1,1,2)#105  = 0
 n_0003#144:  x(1,1,1,2)#8 - x(1,1,1,3)#12 + w(1,1,1,3)#185  = 0
 n_1003#145:  x(2,1,1,2)#9 - x(2,1,1,3)#13 + w(2,1,1,3)#153  = 0
 n_2003#146:  x(3,1,1,2)#10 - x(3,1,1,3)#14 + w(3,1,1,3)#159  = 0
 n_3003#147:  x(4,1,1,2)#11 - x(4,1,1,3)#15 + w(4,1,1,3)#164  = 0
 n_0004#148:  x(1,1,1,3)#12 - x(1,1,1,4)#16 + w(1,1,1,4)#186  = 0
 n_1004#149:  x(2,1,1,3)#13 - x(2,1,1,4)#17 + w(2,1,1,4)#187  = 0
 n_2004#150:  x(3,1,1,3)#14 - x(3,1,1,4)#18 + w(3,1,1,4)#188  = 0
 n_3004#151:  x(4,1,1,3)#15 - x(4,1,1,4)#19 + w(4,1,1,4)#189  = 0
 n_0005#152:  x(1,1,1,4)#16 - x(1,1,1,5)#20 + w(1,1,1,5)#157  = 0
 n_1005#153:  x(2,1,1,4)#17 - x(2,1,1,5)#21 + w(2,1,1,5)#162  = 0
 n_2005#154:  x(3,1,1,4)#18 - x(3,1,1,5)#22 + w(3,1,1,5)#167  = 0
 n_3005#155:  x(4,1,1,4)#19 - x(4,1,1,5)#23 + w(4,1,1,5)#190  = 0
 n_0011#156:  x(1,1,2,0)#24 - x(1,1,2,1)#25 + w(1,1,2,1)#59  = 0
 n_1011#157:  x(2,1,2,0)#26 - x(2,1,2,1)#27 + w(2,1,2,1)#169  = 0
 n_2011#158:  x(3,1,2,0)#28 - x(3,1,2,1)#29 + w(3,1,2,1)#175  = 0
 n_3011#159:  x(4,1,2,0)#30 - x(4,1,2,1)#31 + w(4,1,2,1)#150  = 0
 n_0012#160:  x(1,1,2,1)#25 - x(1,1,2,2)#32 + w(1,1,2,2)#191  = 0
 n_1012#161:  x(2,1,2,1)#27 - x(2,1,2,2)#33 + w(2,1,2,2)#192  = 0
 n_2012#162:  x(3,1,2,1)#29 - x(3,1,2,2)#34 + w(3,1,2,2)#193  = 0
 n_3012#163:  x(4,1,2,1)#31 - x(4,1,2,2)#35 + w(4,1,2,2)#149  = 0
 n_0013#164:  x(1,1,2,2)#32 - x(1,1,2,3)#36 + w(1,1,2,3)#194  = 0
 n_1013#165:  x(2,1,2,2)#33 - x(2,1,2,3)#37 + w(2,1,2,3)#195  = 0
 n_2013#166:  x(3,1,2,2)#34 - x(3,1,2,3)#38 + w(3,1,2,3)#196  = 0
 n_3013#167:  x(4,1,2,2)#35 - x(4,1,2,3)#39 + w(4,1,2,3)#180  = 0
 n_0014#168:  x(1,1,2,3)#36 - x(1,1,2,4)#40 + w(1,1,2,4)#197  = 0
 n_1014#169:  x(2,1,2,3)#37 - x(2,1,2,4)#41 + w(2,1,2,4)#198  = 0
 n_2014#170:  x(3,1,2,3)#38 - x(3,1,2,4)#42 + w(3,1,2,4)#199  = 0
 n_3014#171:  x(4,1,2,3)#39 - x(4,1,2,4)#43 + w(4,1,2,4)#200  = 0
 n_0015#172:  x(1,1,2,4)#40 - x(1,1,2,5)#44 + w(1,1,2,5)#201  = 0
 n_1015#173:  x(2,1,2,4)#41 - x(2,1,2,5)#45 + w(2,1,2,5)#202  = 0
 n_2015#174:  x(3,1,2,4)#42 - x(3,1,2,5)#46 + w(3,1,2,5)#183  = 0
 n_3015#175:  x(4,1,2,4)#43 - x(4,1,2,5)#47 + w(4,1,2,5)#203  = 0
 o_0000#176:  - x(1,1,1,0)#0 + w(1,1,1,0)#154  = 0
 o_1000#177:  - x(2,1,1,0)#2 + w(2,1,1,0)#75  = 0
 o_2000#178:  - x(3,1,1,0)#4 + w(3,1,1,0)#91  = 0
 o_3000#179:  - x(4,1,1,0)#6 + w(4,1,1,0)#107  = 0
 o_0010#180:  - x(1,1,2,0)#24 + w(1,1,2,0)#170  = 0
 o_1010#181:  - x(2,1,2,0)#26 + w(2,1,2,0)#121  = 0
 o_2010#182:  - x(3,1,2,0)#28 + w(3,1,2,0)#135  = 0
 o_3010#183:  - x(4,1,2,0)#30 + w(4,1,2,0)#151  = 0
 p_0006#184:  w(1,1,1,6)#204  = 0
 p_0007#185:  w(1,1,1,7)#205  = 0
 p_0008#186:  w(1,1,1,8)#206  = 0
 p_1006#187:  w(2,1,1,6)#207  = 0
 p_1007#188:  w(2,1,1,7)#208  = 0
 p_1008#189:  w(2,1,1,8)#156  = 0
 p_2006#190:  w(3,1,1,6)#209  = 0
 p_2007#191:  w(3,1,1,7)#210  = 0
 p_2008#192:  w(3,1,1,8)#161  = 0
 p_3006#193:  w(4,1,1,6)#211  = 0
 p_3007#194:  w(4,1,1,7)#212  = 0
 p_3008#195:  w(4,1,1,8)#166  = 0
 p_0016#196:  w(1,1,2,6)#213  = 0
 p_0017#197:  w(1,1,2,7)#173  = 0
 p_0018#198:  w(1,1,2,8)#214  = 0
 p_1016#199:  w(2,1,2,6)#215  = 0
 p_1017#200:  w(2,1,2,7)#178  = 0
 p_1018#201:  w(2,1,2,8)#172  = 0
 p_2016#202:  w(3,1,2,6)#216  = 0
 p_2017#203:  w(3,1,2,7)#217  = 0
 p_2018#204:  w(3,1,2,8)#177  = 0
 p_3016#205:  w(4,1,2,6)#218  = 0
 p_3017#206:  w(4,1,2,7)#219  = 0
 p_3018#207:  w(4,1,2,8)#182  = 0
 r_0000#208:  y(1,1,1,0)#220 - u(1,1,1,0)#221 + v(1,1,1,0)#222  = 0
 s_0000#209:  u(1,1,1,0)#221 + v(1,1,1,0)#222 <= 1
 r_1000#210:  y(2,1,1,0)#223 - u(2,1,1,0)#224 + v(2,1,1,0)#225  = 0
 s_1000#211:  u(2,1,1,0)#224 + v(2,1,1,0)#225 <= 1
 r_2000#212:  y(3,1,1,0)#226 - u(3,1,1,0)#227 + v(3,1,1,0)#228  = 0
 s_2000#213:  u(3,1,1,0)#227 + v(3,1,1,0)#228 <= 1
 r_3000#214:  y(4,1,1,0)#229 - u(4,1,1,0)#230 + v(4,1,1,0)#231  = 0
 s_3000#215:  u(4,1,1,0)#230 + v(4,1,1,0)#231 <= 1
 r_0001#216:  y(1,1,1,1)#232 - u(1,1,1,1)#233 + v(1,1,1,1)#234  = 0
 s_0001#217:  u(1,1,1,1)#233 + v(1,1,1,1)#234 <= 1
 r_1001#218:  y(2,1,1,1)#235 - u(2,1,1,1)#236 + v(2,1,1,1)#237  = 0
 s_1001#219:  u(2,1,1,1)#236 + v(2,1,1,1)#237 <= 1
 r_2001#220:  y(3,1,1,1)#238 - u(3,1,1,1)#239 + v(3,1,1,1)#240  = 0
 s_2001#221:  u(3,1,1,1)#239 + v(3,1,1,1)#240 <= 1
 r_3001#222:  y(4,1,1,1)#241 - u(4,1,1,1)#242 + v(4,1,1,1)#243  = 0
 s_3001#223:  u(4,1,1,1)#242 + v(4,1,1,1)#243 <= 1
 r_0002#224:  y(1,1,1,2)#244 - u(1,1,1,2)#245 + v(1,1,1,2)#246  = 0
 s_0002#225:  u(1,1,1,2)#245 + v(1,1,1,2)#246 <= 1
 r_1002#226:  y(2,1,1,2)#247 - u(2,1,1,2)#248 + v(2,1,1,2)#249  = 0
 s_1002#227:  u(2,1,1,2)#248 + v(2,1,1,2)#249 <= 1
 r_2002#228:  y(3,1,1,2)#250 - u(3,1,1,2)#251 + v(3,1,1,2)#252  = 0
 s_2002#229:  u(3,1,1,2)#251 + v(3,1,1,2)#252 <= 1
 r_3002#230:  y(4,1,1,2)#253 - u(4,1,1,2)#254 + v(4,1,1,2)#255  = 0
 s_3002#231:  u(4,1,1,2)#254 + v(4,1,1,2)#255 <= 1
 r_0003#232:  y(1,1,1,3)#256 - u(1,1,1,3)#257 + v(1,1,1,3)#258  = 0
 s_0003#233:  u(1,1,1,3)#257 + v(1,1,1,3)#258 <= 1
 r_1003#234:  - u(2,1,1,3)#61 + v(2,1,1,3)#62 + y(2,1,1,3)#152  = 0
 s_1003#235:  u(2,1,1,3)#61 + v(2,1,1,3)#62 <= 1
 r_2003#236:  - u(3,1,1,3)#77 + v(3,1,1,3)#78 + y(3,1,1,3)#158  = 0
 s_2003#237:  u(3,1,1,3)#77 + v(3,1,1,3)#78 <= 1
 r_3003#238:  - u(4,1,1,3)#93 + v(4,1,1,3)#94 + y(4,1,1,3)#163  = 0
 s_3003#239:  u(4,1,1,3)#93 + v(4,1,1,3)#94 <= 1
 r_0004#240:  y(1,1,1,4)#259 - u(1,1,1,4)#260 + v(1,1,1,4)#261  = 0
 s_0004#241:  u(1,1,1,4)#260 + v(1,1,1,4)#261 <= 1
 r_1004#242:  - u(2,1,1,4)#63 + v(2,1,1,4)#64 + y(2,1,1,4)#262  = 0
 s_1004#243:  u(2,1,1,4)#63 + v(2,1,1,4)#64 <= 1
 r_2004#244:  - u(3,1,1,4)#79 + v(3,1,1,4)#80 + y(3,1,1,4)#263  = 0
 s_2004#245:  u(3,1,1,4)#79 + v(3,1,1,4)#80 <= 1
 r_3004#246:  - u(4,1,1,4)#95 + v(4,1,1,4)#96 + y(4,1,1,4)#264  = 0
 s_3004#247:  u(4,1,1,4)#95 + v(4,1,1,4)#96 <= 1
 r_0005#248:  y(1,1,1,5)#265 - u(1,1,1,5)#266 + v(1,1,1,5)#267  = 0
 s_0005#249:  u(1,1,1,5)#266 + v(1,1,1,5)#267 <= 1
 r_1005#250:  - u(2,1,1,5)#65 + v(2,1,1,5)#66 + y(2,1,1,5)#268  = 0
 s_1005#251:  u(2,1,1,5)#65 + v(2,1,1,5)#66 <= 1
 r_2005#252:  - u(3,1,1,5)#81 + v(3,1,1,5)#82 + y(3,1,1,5)#269  = 0
 s_2005#253:  u(3,1,1,5)#81 + v(3,1,1,5)#82 <= 1
 r_3005#254:  - u(4,1,1,5)#97 + v(4,1,1,5)#98 + y(4,1,1,5)#270  = 0
 s_3005#255:  u(4,1,1,5)#97 + v(4,1,1,5)#98 <= 1
 r_0006#256:  y(1,1,1,6)#271 - u(1,1,1,6)#272 + v(1,1,1,6)#273  = 0
 s_0006#257:  u(1,1,1,6)#272 + v(1,1,1,6)#273 <= 1
 r_1006#258:  - u(2,1,1,6)#67 + v(2,1,1,6)#68 + y(2,1,1,6)#274  = 0
 s_1006#259:  u(2,1,1,6)#67 + v(2,1,1,6)#68 <= 1
 r_2006#260:  - u(3,1,1,6)#83 + v(3,1,1,6)#84 + y(3,1,1,6)#275  = 0
 s_2006#261:  u(3,1,1,6)#83 + v(3,1,1,6)#84 <= 1
 r_3006#262:  - u(4,1,1,6)#99 + v(4,1,1,6)#100 + y(4,1,1,6)#276  = 0
 s_3006#263:  u(4,1,1,6)#99 + v(4,1,1,6)#100 <= 1
 r_0007#264:  y(1,1,1,7)#277 - u(1,1,1,7)#278 + v(1,1,1,7)#279  = 0
 s_0007#265:  u(1,1,1,7)#278 + v(1,1,1,7)#279 <= 1
 r_1007#266:  - u(2,1,1,7)#69 + v(2,1,1,7)#70 + y(2,1,1,7)#280  = 0
 s_1007#267:  u(2,1,1,7)#69 + v(2,1,1,7)#70 <= 1
 r_2007#268:  - u(3,1,1,7)#85 + v(3,1,1,7)#86 + y(3,1,1,7)#281  = 0
 s_2007#269:  u(3,1,1,7)#85 + v(3,1,1,7)#86 <= 1
 r_3007#270:  - u(4,1,1,7)#101 + v(4,1,1,7)#102 + y(4,1,1,7)#282  = 0
 s_3007#271:  u(4,1,1,7)#101 + v(4,1,1,7)#102 <= 1
 r_0008#272:  y(1,1,1,8)#283 - u(1,1,1,8)#284 + v(1,1,1,8)#285  = 0
 s_0008#273:  u(1,1,1,8)#284 + v(1,1,1,8)#285 <= 1
 r_1008#274:  - u(2,1,1,8)#71 + v(2,1,1,8)#72 + y(2,1,1,8)#155  = 0
 s_1008#275:  u(2,1,1,8)#71 + v(2,1,1,8)#72 <= 1
 r_2008#276:  - u(3,1,1,8)#87 + v(3,1,1,8)#88 + y(3,1,1,8)#160  = 0
 s_2008#277:  u(3,1,1,8)#87 + v(3,1,1,8)#88 <= 1
 r_3008#278:  - u(4,1,1,8)#103 + v(4,1,1,8)#104 + y(4,1,1,8)#165  = 0
 s_3008#279:  u(4,1,1,8)#103 + v(4,1,1,8)#104 <= 1
 r_0010#280:  y(1,1,2,0)#286 - u(1,1,2,0)#287 + v(1,1,2,0)#288  = 0
 s_0010#281:  u(1,1,2,0)#287 + v(1,1,2,0)#288 <= 1
 r_1010#282:  y(2,1,2,0)#289 - u(2,1,2,0)#290 + v(2,1,2,0)#291  = 0
 s_1010#283:  u(2,1,2,0)#290 + v(2,1,2,0)#291 <= 1
 r_2010#284:  y(3,1,2,0)#292 - u(3,1,2,0)#293 + v(3,1,2,0)#294  = 0
 s_2010#285:  u(3,1,2,0)#293 + v(3,1,2,0)#294 <= 1
 r_3010#286:  y(4,1,2,0)#295 - u(4,1,2,0)#296 + v(4,1,2,0)#297  = 0
 s_3010#287:  u(4,1,2,0)#296 + v(4,1,2,0)#297 <= 1
 r_0011#288:  y(1,1,2,1)#298 - u(1,1,2,1)#299 + v(1,1,2,1)#300  = 0
 s_0011#289:  u(1,1,2,1)#299 + v(1,1,2,1)#300 <= 1
 r_1011#290:  - u(2,1,2,1)#109 + v(2,1,2,1)#110 + y(2,1,2,1)#168  = 0
 s_1011#291:  u(2,1,2,1)#109 + v(2,1,2,1)#110 <= 1
 r_2011#292:  - u(3,1,2,1)#123 + v(3,1,2,1)#124 + y(3,1,2,1)#174  = 0
 s_2011#293:  u(3,1,2,1)#123 + v(3,1,2,1)#124 <= 1
 r_3011#294:  y(4,1,2,1)#301 - u(4,1,2,1)#302 + v(4,1,2,1)#303  = 0
 s_3011#295:  u(4,1,2,1)#302 + v(4,1,2,1)#303 <= 1
 r_0012#296:  y(1,1,2,2)#304 - u(1,1,2,2)#305 + v(1,1,2,2)#306  = 0
 s_0012#297:  u(1,1,2,2)#305 + v(1,1,2,2)#306 <= 1
 r_1012#298:  - u(2,1,2,2)#111 + v(2,1,2,2)#112 + y(2,1,2,2)#307  = 0
 s_1012#299:  u(2,1,2,2)#111 + v(2,1,2,2)#112 <= 1
 r_2012#300:  - u(3,1,2,2)#125 + v(3,1,2,2)#126 + y(3,1,2,2)#308  = 0
 s_2012#301:  u(3,1,2,2)#125 + v(3,1,2,2)#126 <= 1
 r_3012#302:  y(4,1,2,2)#309 - u(4,1,2,2)#310 + v(4,1,2,2)#311  = 0
 s_3012#303:  u(4,1,2,2)#310 + v(4,1,2,2)#311 <= 1
 r_0013#304:  y(1,1,2,3)#312 - u(1,1,2,3)#313 + v(1,1,2,3)#314  = 0
 s_0013#305:  u(1,1,2,3)#313 + v(1,1,2,3)#314 <= 1
 r_1013#306:  - u(2,1,2,3)#113 + v(2,1,2,3)#114 + y(2,1,2,3)#315  = 0
 s_1013#307:  u(2,1,2,3)#113 + v(2,1,2,3)#114 <= 1
 r_2013#308:  - u(3,1,2,3)#127 + v(3,1,2,3)#128 + y(3,1,2,3)#316  = 0
 s_2013#309:  u(3,1,2,3)#127 + v(3,1,2,3)#128 <= 1
 r_3013#310:  - u(4,1,2,3)#137 + v(4,1,2,3)#138 + y(4,1,2,3)#179  = 0
 s_3013#311:  u(4,1,2,3)#137 + v(4,1,2,3)#138 <= 1
 r_0014#312:  y(1,1,2,4)#317 - u(1,1,2,4)#318 + v(1,1,2,4)#319  = 0
 s_0014#313:  u(1,1,2,4)#318 + v(1,1,2,4)#319 <= 1
 r_1014#314:  - u(2,1,2,4)#115 + v(2,1,2,4)#116 + y(2,1,2,4)#320  = 0
 s_1014#315:  u(2,1,2,4)#115 + v(2,1,2,4)#116 <= 1
 r_2014#316:  - u(3,1,2,4)#129 + v(3,1,2,4)#130 + y(3,1,2,4)#321  = 0
 s_2014#317:  u(3,1,2,4)#129 + v(3,1,2,4)#130 <= 1
 r_3014#318:  - u(4,1,2,4)#139 + v(4,1,2,4)#140 + y(4,1,2,4)#322  = 0
 s_3014#319:  u(4,1,2,4)#139 + v(4,1,2,4)#140 <= 1
 r_0015#320:  y(1,1,2,5)#323 - u(1,1,2,5)#324 + v(1,1,2,5)#325  = 0
 s_0015#321:  u(1,1,2,5)#324 + v(1,1,2,5)#325 <= 1
 r_1015#322:  - u(2,1,2,5)#117 + v(2,1,2,5)#118 + y(2,1,2,5)#326  = 0
 s_1015#323:  u(2,1,2,5)#117 + v(2,1,2,5)#118 <= 1
 r_2015#324:  - u(3,1,2,5)#131 + v(3,1,2,5)#132 + y(3,1,2,5)#327  = 0
 s_2015#325:  u(3,1,2,5)#131 + v(3,1,2,5)#132 <= 1
 r_3015#326:  - u(4,1,2,5)#141 + v(4,1,2,5)#142 + y(4,1,2,5)#328  = 0
 s_3015#327:  u(4,1,2,5)#141 + v(4,1,2,5)#142 <= 1
 r_0016#328:  y(1,1,2,6)#329 - u(1,1,2,6)#330 + v(1,1,2,6)#331  = 0
 s_0016#329:  u(1,1,2,6)#330 + v(1,1,2,6)#331 <= 1
 r_1016#330:  - u(2,1,2,6)#119 + v(2,1,2,6)#120 + y(2,1,2,6)#332  = 0
 s_1016#331:  u(2,1,2,6)#119 + v(2,1,2,6)#120 <= 1
 r_2016#332:  - u(3,1,2,6)#133 + v(3,1,2,6)#134 + y(3,1,2,6)#333  = 0
 s_2016#333:  u(3,1,2,6)#133 + v(3,1,2,6)#134 <= 1
 r_3016#334:  - u(4,1,2,6)#143 + v(4,1,2,6)#144 + y(4,1,2,6)#334  = 0
 s_3016#335:  u(4,1,2,6)#143 + v(4,1,2,6)#144 <= 1
 r_0017#336:  y(1,1,2,7)#335 - u(1,1,2,7)#336 + v(1,1,2,7)#337  = 0
 s_0017#337:  u(1,1,2,7)#336 + v(1,1,2,7)#337 <= 1
 r_1017#338:  y(2,1,2,7)#338 - u(2,1,2,7)#339 + v(2,1,2,7)#340  = 0
 s_1017#339:  u(2,1,2,7)#339 + v(2,1,2,7)#340 <= 1
 r_2017#340:  y(3,1,2,7)#341 - u(3,1,2,7)#342 + v(3,1,2,7)#343  = 0
 s_2017#341:  u(3,1,2,7)#342 + v(3,1,2,7)#343 <= 1
 r_3017#342:  - u(4,1,2,7)#145 + v(4,1,2,7)#146 + y(4,1,2,7)#344  = 0
 s_3017#343:  u(4,1,2,7)#145 + v(4,1,2,7)#146 <= 1
 r_0018#344:  y(1,1,2,8)#345 - u(1,1,2,8)#346 + v(1,1,2,8)#347  = 0
 s_0018#345:  u(1,1,2,8)#346 + v(1,1,2,8)#347 <= 1
 r_1018#346:  y(2,1,2,8)#171 - u(2,1,2,8)#348 + v(2,1,2,8)#349  = 0
 s_1018#347:  u(2,1,2,8)#348 + v(2,1,2,8)#349 <= 1
 r_2018#348:  y(3,1,2,8)#176 - u(3,1,2,8)#350 + v(3,1,2,8)#351  = 0
 s_2018#349:  u(3,1,2,8)#350 + v(3,1,2,8)#351 <= 1
 r_3018#350:  - u(4,1,2,8)#147 + v(4,1,2,8)#148 + y(4,1,2,8)#181  = 0
 s_3018#351:  u(4,1,2,8)#147 + v(4,1,2,8)#148 <= 1
Bounds
 0 <= x(1,1,1,0)#0 <= 1
 0 <= x(1,1,1,1)#1 <= 1
 0 <= x(2,1,1,0)#2 <= 1
 0 <= x(2,1,1,1)#3 <= 1
 0 <= x(3,1,1,0)#4 <= 1
 0 <= x(3,1,1,1)#5 <= 1
 0 <= x(4,1,1,0)#6 <= 1
 0 <= x(4,1,1,1)#7 <= 1
 0 <= x(1,1,1,2)#8 <= 1
 0 <= x(2,1,1,2)#9 <= 1
 0 <= x(3,1,1,2)#10 <= 1
 0 <= x(4,1,1,2)#11 <= 1
 0 <= x(1,1,1,3)#12 <= 1
 0 <= x(2,1,1,3)#13 <= 1
 0 <= x(3,1,1,3)#14 <= 1
 0 <= x(4,1,1,3)#15 <= 1
 0 <= x(1,1,1,4)#16 <= 1
 0 <= x(2,1,1,4)#17 <= 1
 0 <= x(3,1,1,4)#18 <= 1
 0 <= x(4,1,1,4)#19 <= 1
 0 <= x(1,1,1,5)#20 <= 1
 0 <= x(2,1,1,5)#21 <= 1
 0 <= x(3,1,1,5)#22 <= 1
 0 <= x(4,1,1,5)#23 <= 1
 0 <= x(1,1,2,0)#24 <= 1
 0 <= x(1,1,2,1)#25 <= 1
 0 <= x(2,1,2,0)#26 <= 1
 0 <= x(2,1,2,1)#27 <= 1
 0 <= x(3,1,2,0)#28 <= 1
 0 <= x(3,1,2,1)#29 <= 1
 0 <= x(4,1,2,0)#30 <= 1
 0 <= x(4,1,2,1)#31 <= 1
 0 <= x(1,1,2,2)#32 <= 1
 0 <= x(2,1,2,2)#33 <= 1
 0 <= x(3,1,2,2)#34 <= 1
 0 <= x(4,1,2,2)#35 <= 1
 0 <= x(1,1,2,3)#36 <= 1
 0 <= x(2,1,2,3)#37 <= 1
 0 <= x(3,1,2,3)#38 <= 1
 0 <= x(4,1,2,3)#39 <= 1
 0 <= x(1,1,2,4)#40 <= 1
 0 <= x(2,1,2,4)#41 <= 1
 0 <= x(3,1,2,4)#42 <= 1
 0 <= x(4,1,2,4)#43 <= 1
 0 <= x(1,1,2,5)#44 <= 1
 0 <= x(2,1,2,5)#45 <= 1
 0 <= x(3,1,2,5)#46 <= 1
 0 <= x(4,1,2,5)#47 <= 1
 0 <= z(1,1)#48 <= 1
 0 <= z(1,1)#49 <= 1
 0 <= z(1,1)#50 <= 1
 0 <= z(1,1)#51 <= 1
 0 <= z(1,1)#52 <= 1
 0 <= z(1,1)#53 <= 1
 0 <= x(1)#54 <= 1
 0 <= x(2)#55 <= 1
 0 <= YY(1,1,1)#56 <= 1
 0 <= w(1,1,1,2)#57 <= 1
 0 <= YY(1,1,2)#58 <= 1
 0 <= w(1,1,2,1)#59 <= 1
 0 <= YY(2,1,1)#60 <= 1
 0 <= u(2,1,1,3)#61 <= 1
 0 <= v(2,1,1,3)#62 <= 1
 0 <= u(2,1,1,4)#63 <= 1
 0 <= v(2,1,1,4)#64 <= 1
 0 <= u(2,1,1,5)#65 <= 1
 0 <= v(2,1,1,5)#66 <= 1
 0 <= u(2,1,1,6)#67 <= 1
 0 <= v(2,1,1,6)#68 <= 1
 0 <= u(2,1,1,7)#69 <= 1
 0 <= v(2,1,1,7)#70 <= 1
 0 <= u(2,1,1,8)#71 <= 1
 0 <= v(2,1,1,8)#72 <= 1
 0 <= w(2,1,1,2)#73 <= 1
 0 <= w(2,1,1,1)#74 <= 1
 0 <= w(2,1,1,0)#75 <= 1
 0 <= YY(3,1,1)#76 <= 1
 0 <= u(3,1,1,3)#77 <= 1
 0 <= v(3,1,1,3)#78 <= 1
 0 <= u(3,1,1,4)#79 <= 1
 0 <= v(3,1,1,4)#80 <= 1
 0 <= u(3,1,1,5)#81 <= 1
 0 <= v(3,1,1,5)#82 <= 1
 0 <= u(3,1,1,6)#83 <= 1
 0 <= v(3,1,1,6)#84 <= 1
 0 <= u(3,1,1,7)#85 <= 1
 0 <= v(3,1,1,7)#86 <= 1
 0 <= u(3,1,1,8)#87 <= 1
 0 <= v(3,1,1,8)#88 <= 1
 0 <= w(3,1,1,2)#89 <= 1
 0 <= w(3,1,1,1)#90 <= 1
 0 <= w(3,1,1,0)#91 <= 1
 0 <= YY(4,1,1)#92 <= 1
 0 <= u(4,1,1,3)#93 <= 1
 0 <= v(4,1,1,3)#94 <= 1
 0 <= u(4,1,1,4)#95 <= 1
 0 <= v(4,1,1,4)#96 <= 1
 0 <= u(4,1,1,5)#97 <= 1
 0 <= v(4,1,1,5)#98 <= 1
 0 <= u(4,1,1,6)#99 <= 1
 0 <= v(4,1,1,6)#100 <= 1
 0 <= u(4,1,1,7)#101 <= 1
 0 <= v(4,1,1,7)#102 <= 1
 0 <= u(4,1,1,8)#103 <= 1
 0 <= v(4,1,1,8)#104 <= 1
 0 <= w(4,1,1,2)#105 <= 1
 0 <= w(4,1,1,1)#106 <= 1
 0 <= w(4,1,1,0)#107 <= 1
 0 <= YY(2,1,2)#108 <= 1
 0 <= u(2,1,2,1)#109 <= 1
 0 <= v(2,1,2,1)#110 <= 1
 0 <= u(2,1,2,2)#111 <= 1
 0 <= v(2,1,2,2)#112 <= 1
 0 <= u(2,1,2,3)#113 <= 1
 0 <= v(2,1,2,3)#114 <= 1
 0 <= u(2,1,2,4)#115 <= 1
 0 <= v(2,1,2,4)#116 <= 1
 0 <= u(2,1,2,5)#117 <= 1
 0 <= v(2,1,2,5)#118 <= 1
 0 <= u(2,1,2,6)#119 <= 1
 0 <= v(2,1,2,6)#120 <= 1
 0 <= w(2,1,2,0)#121 <= 1
 0 <= YY(3,1,2)#122 <= 1
 0 <= u(3,1,2,1)#123 <= 1
 0 <= v(3,1,2,1)#124 <= 1
 0 <= u(3,1,2,2)#125 <= 1
 0 <= v(3,1,2,2)#126 <= 1
 0 <= u(3,1,2,3)#127 <= 1
 0 <= v(3,1,2,3)#128 <= 1
 0 <= u(3,1,2,4)#129 <= 1
 0 <= v(3,1,2,4)#130 <= 1
 0 <= u(3,1,2,5)#131 <= 1
 0 <= v(3,1,2,5)#132 <= 1
 0 <= u(3,1,2,6)#133 <= 1
 0 <= v(3,1,2,6)#134 <= 1
 0 <= w(3,1,2,0)#135 <= 1
 0 <= YY(4,1,2)#136 <= 1
 0 <= u(4,1,2,3)#137 <= 1
 0 <= v(4,1,2,3)#138 <= 1
 0 <= u(4,1,2,4)#139 <= 1
 0 <= v(4,1,2,4)#140 <= 1
 0 <= u(4,1,2,5)#141 <= 1
 0 <= v(4,1,2,5)#142 <= 1
 0 <= u(4,1,2,6)#143 <= 1
 0 <= v(4,1,2,6)#144 <= 1
 0 <= u(4,1,2,7)#145 <= 1
 0 <= v(4,1,2,7)#146 <= 1
 0 <= u(4,1,2,8)#147 <= 1
 0 <= v(4,1,2,8)#148 <= 1
 0 <= w(4,1,2,2)#149 <= 1
 0 <= w(4,1,2,1)#150 <= 1
 0 <= w(4,1,2,0)#151 <= 1
 0 <= y(2,1,1,3)#152 <= 1
 0 <= w(2,1,1,3)#153 <= 1
 0 <= w(1,1,1,0)#154 <= 1
 0 <= y(2,1,1,8)#155 <= 1
 0 <= w(2,1,1,8)#156 <= 1
 0 <= w(1,1,1,5)#157 <= 1
 0 <= y(3,1,1,3)#158 <= 1
 0 <= w(3,1,1,3)#159 <= 1
 0 <= y(3,1,1,8)#160 <= 1
 0 <= w(3,1,1,8)#161 <= 1
 0 <= w(2,1,1,5)#162 <= 1
 0 <= y(4,1,1,3)#163 <= 1
 0 <= w(4,1,1,3)#164 <= 1
 0 <= y(4,1,1,8)#165 <= 1
 0 <= w(4,1,1,8)#166 <= 1
 0 <= w(3,1,1,5)#167 <= 1
 0 <= y(2,1,2,1)#168 <= 1
 0 <= w(2,1,2,1)#169 <= 1
 0 <= w(1,1,2,0)#170 <= 1
 0 <= y(2,1,2,8)#171 <= 1
 0 <= w(2,1,2,8)#172 <= 1
 0 <= w(1,1,2,7)#173 <= 1
 0 <= y(3,1,2,1)#174 <= 1
 0 <= w(3,1,2,1)#175 <= 1
 0 <= y(3,1,2,8)#176 <= 1
 0 <= w(3,1,2,8)#177 <= 1
 0 <= w(2,1,2,7)#178 <= 1
 0 <= y(4,1,2,3)#179 <= 1
 0 <= w(4,1,2,3)#180 <= 1
 0 <= y(4,1,2,8)#181 <= 1
 0 <= w(4,1,2,8)#182 <= 1
 0 <= w(3,1,2,5)#183 <= 1
 0 <= w(1,1,1,1)#184 <= 1
 0 <= w(1,1,1,3)#185 <= 1
 0 <= w(1,1,1,4)#186 <= 1
 0 <= w(2,1,1,4)#187 <= 1
 0 <= w(3,1,1,4)#188 <= 1
 0 <= w(4,1,1,4)#189 <= 1
 0 <= w(4,1,1,5)#190 <= 1
 0 <= w(1,1,2,2)#191 <= 1
 0 <= w(2,1,2,2)#192 <= 1
 0 <= w(3,1,2,2)#193 <= 1
 0 <= w(1,1,2,3)#194 <= 1
 0 <= w(2,1,2,3)#195 <= 1
 0 <= w(3,1,2,3)#196 <= 1
 0 <= w(1,1,2,4)#197 <= 1
 0 <= w(2,1,2,4)#198 <= 1
 0 <= w(3,1,2,4)#199 <= 1
 0 <= w(4,1,2,4)#200 <= 1
 0 <= w(1,1,2,5)#201 <= 1
 0 <= w(2,1,2,5)#202 <= 1
 0 <= w(4,1,2,5)#203 <= 1
 0 <= w(1,1,1,6)#204 <= 1
 0 <= w(1,1,1,7)#205 <= 1
 0 <= w(1,1,1,8)#206 <= 1
 0 <= w(2,1,1,6)#207 <= 1
 0 <= w(2,1,1,7)#208 <= 1
 0 <= w(3,1,1,6)#209 <= 1
 0 <= w(3,1,1,7)#210 <= 1
 0 <= w(4,1,1,6)#211 <= 1
 0 <= w(4,1,1,7)#212 <= 1
 0 <= w(1,1,2,6)#213 <= 1
 0 <= w(1,1,2,8)#214 <= 1
 0 <= w(2,1,2,6)#215 <= 1
 0 <= w(3,1,2,6)#216 <= 1
 0 <= w(3,1,2,7)#217 <= 1
 0 <= w(4,1,2,6)#218 <= 1
 0 <= w(4,1,2,7)#219 <= 1
 0 <= y(1,1,1,0)#220 <= 1
 0 <= u(1,1,1,0)#221 <= 1
 0 <= v(1,1,1,0)#222 <= 1
 0 <= y(2,1,1,0)#223 <= 1
 0 <= u(2,1,1,0)#224 <= 1
 0 <= v(2,1,1,0)#225 <= 1
 0 <= y(3,1,1,0)#226 <= 1
 0 <= u(3,1,1,0)#227 <= 1
 0 <= v(3,1,1,0)#228 <= 1
 0 <= y(4,1,1,0)#229 <= 1
 0 <= u(4,1,1,0)#230 <= 1
 0 <= v(4,1,1,0)#231 <= 1
 0 <= y(1,1,1,1)#232 <= 1
 0 <= u(1,1,1,1)#233 <= 1
 0 <= v(1,1,1,1)#234 <= 1
 0 <= y(2,1,1,1)#235 <= 1
 0 <= u(2,1,1,1)#236 <= 1
 0 <= v(2,1,1,1)#237 <= 1
 0 <= y(3,1,1,1)#238 <= 1
 0 <= u(3,1,1,1)#239 <= 1
 0 <= v(3,1,1,1)#240 <= 1
 0 <= y(4,1,1,1)#241 <= 1
 0 <= u(4,1,1,1)#242 <= 1
 0 <= v(4,1,1,1)#243 <= 1
 0 <= y(1,1,1,2)#244 <= 1
 0 <= u(1,1,1,2)#245 <= 1
 0 <= v(1,1,1,2)#246 <= 1
 0 <= y(2,1,1,2)#247 <= 1
 0 <= u(2,1,1,2)#248 <= 1
 0 <= v(2,1,1,2)#249 <= 1
 0 <= y(3,1,1,2)#250 <= 1
 0 <= u(3,1,1,2)#251 <= 1
 0 <= v(3,1,1,2)#252 <= 1
 0 <= y(4,1,1,2)#253 <= 1
 0 <= u(4,1,1,2)#254 <= 1
 0 <= v(4,1,1,2)#255 <= 1
 0 <= y(1,1,1,3)#256 <= 1
 0 <= u(1,1,1,3)#257 <= 1
 0 <= v(1,1,1,3)#258 <= 1
 0 <= y(1,1,1,4)#259 <= 1
 0 <= u(1,1,1,4)#260 <= 1
 0 <= v(1,1,1,4)#261 <= 1
 0 <= y(2,1,1,4)#262 <= 1
 0 <= y(3,1,1,4)#263 <= 1
 0 <= y(4,1,1,4)#264 <= 1
 0 <= y(1,1,1,5)#265 <= 1
 0 <= u(1,1,1,5)#266 <= 1
 0 <= v(1,1,1,5)#267 <= 1
 0 <= y(2,1,1,5)#268 <= 1
 0 <= y(3,1,1,5)#269 <= 1
 0 <= y(4,1,1,5)#270 <= 1
 0 <= y(1,1,1,6)#271 <= 1
 0 <= u(1,1,1,6)#272 <= 1
 0 <= v(1,1,1,6)#273 <= 1
 0 <= y(2,1,1,6)#274 <= 1
 0 <= y(3,1,1,6)#275 <= 1
 0 <= y(4,1,1,6)#276 <= 1
 0 <= y(1,1,1,7)#277 <= 1
 0 <= u(1,1,1,7)#278 <= 1
 0 <= v(1,1,1,7)#279 <= 1
 0 <= y(2,1,1,7)#280 <= 1
 0 <= y(3,1,1,7)#281 <= 1
 0 <= y(4,1,1,7)#282 <= 1
 0 <= y(1,1,1,8)#283 <= 1
 0 <= u(1,1,1,8)#284 <= 1
 0 <= v(1,1,1,8)#285 <= 1
 0 <= y(1,1,2,0)#286 <= 1
 0 <= u(1,1,2,0)#287 <= 1
 0 <= v(1,1,2,0)#288 <= 1
 0 <= y(2,1,2,0)#289 <= 1
 0 <= u(2,1,2,0)#290 <= 1
 0 <= v(2,1,2,0)#291 <= 1
 0 <= y(3,1,2,0)#292 <= 1
 0 <= u(3,1,2,0)#293 <= 1
 0 <= v(3,1,2,0)#294 <= 1
 0 <= y(4,1,2,0)#295 <= 1
 0 <= u(4,1,2,0)#296 <= 1
 0 <= v(4,1,2,0)#297 <= 1
 0 <= y(1,1,2,1)#298 <= 1
 0 <= u(1,1,2,1)#299 <= 1
 0 <= v(1,1,2,1)#300 <= 1
 0 <= y(4,1,2,1)#301 <= 1
 0 <= u(4,1,2,1)#302 <= 1
 0 <= v(4,1,2,1)#303 <= 1
 0 <= y(1,1,2,2)#304 <= 1
 0 <= u(1,1,2,2)#305 <= 1
 0 <= v(1,1,2,2)#306 <= 1
 0 <= y(2,1,2,2)#307 <= 1
 0 <= y(3,1,2,2)#308 <= 1
 0 <= y(4,1,2,2)#309 <= 1
 0 <= u(4,1,2,2)#310 <= 1
 0 <= v(4,1,2,2)#311 <= 1
 0 <= y(1,1,2,3)#312 <= 1
 0 <= u(1,1,2,3)#313 <= 1
 0 <= v(1,1,2,3)#314 <= 1
 0 <= y(2,1,2,3)#315 <= 1
 0 <= y(3,1,2,3)#316 <= 1
 0 <= y(1,1,2,4)#317 <= 1
 0 <= u(1,1,2,4)#318 <= 1
 0 <= v(1,1,2,4)#319 <= 1
 0 <= y(2,1,2,4)#320 <= 1
 0 <= y(3,1,2,4)#321 <= 1
 0 <= y(4,1,2,4)#322 <= 1
 0 <= y(1,1,2,5)#323 <= 1
 0 <= u(1,1,2,5)#324 <= 1
 0 <= v(1,1,2,5)#325 <= 1
 0 <= y(2,1,2,5)#326 <= 1
 0 <= y(3,1,2,5)#327 <= 1
 0 <= y(4,1,2,5)#328 <= 1
 0 <= y(1,1,2,6)#329 <= 1
 0 <= u(1,1,2,6)#330 <= 1
 0 <= v(1,1,2,6)#331 <= 1
 0 <= y(2,1,2,6)#332 <= 1
 0 <= y(3,1,2,6)#333 <= 1
 0 <= y(4,1,2,6)#334 <= 1
 0 <= y(1,1,2,7)#335 <= 1
 0 <= u(1,1,2,7)#336 <= 1
 0 <= v(1,1,2,7)#337 <= 1
 0 <= y(2,1,2,7)#338 <= 1
 0 <= u(2,1,2,7)#339 <= 1
 0 <= v(2,1,2,7)#340 <= 1
 0 <= y(3,1,2,7)#341 <= 1
 0 <= u(3,1,2,7)#342 <= 1
 0 <= v(3,1,2,7)#343 <= 1
 0 <= y(4,1,2,7)#344 <= 1
 0 <= y(1,1,2,8)#345 <= 1
 0 <= u(1,1,2,8)#346 <= 1
 0 <= v(1,1,2,8)#347 <= 1
 0 <= u(2,1,2,8)#348 <= 1
 0 <= v(2,1,2,8)#349 <= 1
 0 <= u(3,1,2,8)#350 <= 1
 0 <= v(3,1,2,8)#351 <= 1
Binaries
 x(1,1,1,0)#0  x(1,1,1,1)#1  x(2,1,1,0)#2  x(2,1,1,1)#3  x(3,1,1,0)#4 
 x(3,1,1,1)#5  x(4,1,1,0)#6  x(4,1,1,1)#7  x(1,1,1,2)#8  x(2,1,1,2)#9 
 x(3,1,1,2)#10  x(4,1,1,2)#11  x(1,1,1,3)#12  x(2,1,1,3)#13  x(3,1,1,3)#14 
 x(4,1,1,3)#15  x(1,1,1,4)#16  x(2,1,1,4)#17  x(3,1,1,4)#18  x(4,1,1,4)#19 
 x(1,1,1,5)#20  x(2,1,1,5)#21  x(3,1,1,5)#22  x(4,1,1,5)#23  x(1,1,2,0)#24 
 x(1,1,2,1)#25  x(2,1,2,0)#26  x(2,1,2,1)#27  x(3,1,2,0)#28  x(3,1,2,1)#29 
 x(4,1,2,0)#30  x(4,1,2,1)#31  x(1,1,2,2)#32  x(2,1,2,2)#33  x(3,1,2,2)#34 
 x(4,1,2,2)#35  x(1,1,2,3)#36  x(2,1,2,3)#37  x(3,1,2,3)#38  x(4,1,2,3)#39 
 x(1,1,2,4)#40  x(2,1,2,4)#41  x(3,1,2,4)#42  x(4,1,2,4)#43  x(1,1,2,5)#44 
 x(2,1,2,5)#45  x(3,1,2,5)#46  x(4,1,2,5)#47  z(1,1)#48  z(1,1)#49  z(1,1)#50 
 z(1,1)#51  z(1,1)#52  z(1,1)#53  x(1)#54  x(2)#55  YY(1,1,1)#56 
 w(1,1,1,2)#57  YY(1,1,2)#58  w(1,1,2,1)#59  YY(2,1,1)#60  u(2,1,1,3)#61 
 v(2,1,1,3)#62  u(2,1,1,4)#63  v(2,1,1,4)#64  u(2,1,1,5)#65  v(2,1,1,5)#66 
 u(2,1,1,6)#67  v(2,1,1,6)#68  u(2,1,1,7)#69  v(2,1,1,7)#70  u(2,1,1,8)#71 
 v(2,1,1,8)#72  w(2,1,1,2)#73  w(2,1,1,1)#74  w(2,1,1,0)#75  YY(3,1,1)#76 
 u(3,1,1,3)#77  v(3,1,1,3)#78  u(3,1,1,4)#79  v(3,1,1,4)#80  u(3,1,1,5)#81 
 v(3,1,1,5)#82  u(3,1,1,6)#83  v(3,1,1,6)#84  u(3,1,1,7)#85  v(3,1,1,7)#86 
 u(3,1,1,8)#87  v(3,1,1,8)#88  w(3,1,1,2)#89  w(3,1,1,1)#90  w(3,1,1,0)#91 
 YY(4,1,1)#92  u(4,1,1,3)#93  v(4,1,1,3)#94  u(4,1,1,4)#95  v(4,1,1,4)#96 
 u(4,1,1,5)#97  v(4,1,1,5)#98  u(4,1,1,6)#99  v(4,1,1,6)#100  u(4,1,1,7)#101 
 v(4,1,1,7)#102  u(4,1,1,8)#103  v(4,1,1,8)#104  w(4,1,1,2)#105 
 w(4,1,1,1)#106  w(4,1,1,0)#107  YY(2,1,2)#108  u(2,1,2,1)#109  v(2,1,2,1)#110 
 u(2,1,2,2)#111  v(2,1,2,2)#112  u(2,1,2,3)#113  v(2,1,2,3)#114 
 u(2,1,2,4)#115  v(2,1,2,4)#116  u(2,1,2,5)#117  v(2,1,2,5)#118 
 u(2,1,2,6)#119  v(2,1,2,6)#120  w(2,1,2,0)#121  YY(3,1,2)#122  u(3,1,2,1)#123 
 v(3,1,2,1)#124  u(3,1,2,2)#125  v(3,1,2,2)#126  u(3,1,2,3)#127 
 v(3,1,2,3)#128  u(3,1,2,4)#129  v(3,1,2,4)#130  u(3,1,2,5)#131 
 v(3,1,2,5)#132  u(3,1,2,6)#133  v(3,1,2,6)#134  w(3,1,2,0)#135  YY(4,1,2)#136 
 u(4,1,2,3)#137  v(4,1,2,3)#138  u(4,1,2,4)#139  v(4,1,2,4)#140 
 u(4,1,2,5)#141  v(4,1,2,5)#142  u(4,1,2,6)#143  v(4,1,2,6)#144 
 u(4,1,2,7)#145  v(4,1,2,7)#146  u(4,1,2,8)#147  v(4,1,2,8)#148 
 w(4,1,2,2)#149  w(4,1,2,1)#150  w(4,1,2,0)#151  y(2,1,1,3)#152 
 w(2,1,1,3)#153  w(1,1,1,0)#154  y(2,1,1,8)#155  w(2,1,1,8)#156 
 w(1,1,1,5)#157  y(3,1,1,3)#158  w(3,1,1,3)#159  y(3,1,1,8)#160 
 w(3,1,1,8)#161  w(2,1,1,5)#162  y(4,1,1,3)#163  w(4,1,1,3)#164 
 y(4,1,1,8)#165  w(4,1,1,8)#166  w(3,1,1,5)#167  y(2,1,2,1)#168 
 w(2,1,2,1)#169  w(1,1,2,0)#170  y(2,1,2,8)#171  w(2,1,2,8)#172 
 w(1,1,2,7)#173  y(3,1,2,1)#174  w(3,1,2,1)#175  y(3,1,2,8)#176 
 w(3,1,2,8)#177  w(2,1,2,7)#178  y(4,1,2,3)#179  w(4,1,2,3)#180 
 y(4,1,2,8)#181  w(4,1,2,8)#182  w(3,1,2,5)#183  w(1,1,1,1)#184 
 w(1,1,1,3)#185  w(1,1,1,4)#186  w(2,1,1,4)#187  w(3,1,1,4)#188 
 w(4,1,1,4)#189  w(4,1,1,5)#190  w(1,1,2,2)#191  w(2,1,2,2)#192 
 w(3,1,2,2)#193  w(1,1,2,3)#194  w(2,1,2,3)#195  w(3,1,2,3)#196 
 w(1,1,2,4)#197  w(2,1,2,4)#198  w(3,1,2,4)#199  w(4,1,2,4)#200 
 w(1,1,2,5)#201  w(2,1,2,5)#202  w(4,1,2,5)#203  w(1,1,1,6)#204 
 w(1,1,1,7)#205  w(1,1,1,8)#206  w(2,1,1,6)#207  w(2,1,1,7)#208 
 w(3,1,1,6)#209  w(3,1,1,7)#210  w(4,1,1,6)#211  w(4,1,1,7)#212 
 w(1,1,2,6)#213  w(1,1,2,8)#214  w(2,1,2,6)#215  w(3,1,2,6)#216 
 w(3,1,2,7)#217  w(4,1,2,6)#218  w(4,1,2,7)#219  y(1,1,1,0)#220 
 u(1,1,1,0)#221  v(1,1,1,0)#222  y(2,1,1,0)#223  u(2,1,1,0)#224 
 v(2,1,1,0)#225  y(3,1,1,0)#226  u(3,1,1,0)#227  v(3,1,1,0)#228 
 y(4,1,1,0)#229  u(4,1,1,0)#230  v(4,1,1,0)#231  y(1,1,1,1)#232 
 u(1,1,1,1)#233  v(1,1,1,1)#234  y(2,1,1,1)#235  u(2,1,1,1)#236 
 v(2,1,1,1)#237  y(3,1,1,1)#238  u(3,1,1,1)#239  v(3,1,1,1)#240 
 y(4,1,1,1)#241  u(4,1,1,1)#242  v(4,1,1,1)#243  y(1,1,1,2)#244 
 u(1,1,1,2)#245  v(1,1,1,2)#246  y(2,1,1,2)#247  u(2,1,1,2)#248 
 v(2,1,1,2)#249  y(3,1,1,2)#250  u(3,1,1,2)#251  v(3,1,1,2)#252 
 y(4,1,1,2)#253  u(4,1,1,2)#254  v(4,1,1,2)#255  y(1,1,1,3)#256 
 u(1,1,1,3)#257  v(1,1,1,3)#258  y(1,1,1,4)#259  u(1,1,1,4)#260 
 v(1,1,1,4)#261  y(2,1,1,4)#262  y(3,1,1,4)#263  y(4,1,1,4)#264 
 y(1,1,1,5)#265  u(1,1,1,5)#266  v(1,1,1,5)#267  y(2,1,1,5)#268 
 y(3,1,1,5)#269  y(4,1,1,5)#270  y(1,1,1,6)#271  u(1,1,1,6)#272 
 v(1,1,1,6)#273  y(2,1,1,6)#274  y(3,1,1,6)#275  y(4,1,1,6)#276 
 y(1,1,1,7)#277  u(1,1,1,7)#278  v(1,1,1,7)#279  y(2,1,1,7)#280 
 y(3,1,1,7)#281  y(4,1,1,7)#282  y(1,1,1,8)#283  u(1,1,1,8)#284 
 v(1,1,1,8)#285  y(1,1,2,0)#286  u(1,1,2,0)#287  v(1,1,2,0)#288 
 y(2,1,2,0)#289  u(2,1,2,0)#290  v(2,1,2,0)#291  y(3,1,2,0)#292 
 u(3,1,2,0)#293  v(3,1,2,0)#294  y(4,1,2,0)#295  u(4,1,2,0)#296 
 v(4,1,2,0)#297  y(1,1,2,1)#298  u(1,1,2,1)#299  v(1,1,2,1)#300 
 y(4,1,2,1)#301  u(4,1,2,1)#302  v(4,1,2,1)#303  y(1,1,2,2)#304 
 u(1,1,2,2)#305  v(1,1,2,2)#306  y(2,1,2,2)#307  y(3,1,2,2)#308 
 y(4,1,2,2)#309  u(4,1,2,2)#310  v(4,1,2,2)#311  y(1,1,2,3)#312 
 u(1,1,2,3)#313  v(1,1,2,3)#314  y(2,1,2,3)#315  y(3,1,2,3)#316 
 y(1,1,2,4)#317  u(1,1,2,4)#318  v(1,1,2,4)#319  y(2,1,2,4)#320 
 y(3,1,2,4)#321  y(4,1,2,4)#322  y(1,1,2,5)#323  u(1,1,2,5)#324 
 v(1,1,2,5)#325  y(2,1,2,5)#326  y(3,1,2,5)#327  y(4,1,2,5)#328 
 y(1,1,2,6)#329  u(1,1,2,6)#330  v(1,1,2,6)#331  y(2,1,2,6)#332 
 y(3,1,2,6)#333  y(4,1,2,6)#334  y(1,1,2,7)#335  u(1,1,2,7)#336 
 v(1,1,2,7)#337  y(2,1,2,7)#338  u(2,1,2,7)#339  v(2,1,2,7)#340 
 y(3,1,2,7)#341  u(3,1,2,7)#342  v(3,1,2,7)#343  y(4,1,2,7)#344 
 y(1,1,2,8)#345  u(1,1,2,8)#346  v(1,1,2,8)#347  u(2,1,2,8)#348 
 v(2,1,2,8)#349  u(3,1,2,8)#350  v(3,1,2,8)#351 
End
